 C
1.000
 5.000000000000000e+01  0.000000000000000e+00  0.000000000000000e+00 
 0.000000000000000e+00  5.000000000000000e+01  0.000000000000000e+00 
 0.000000000000000e+00  0.000000000000000e+00  4.259999999999999e+00 
 560
 direct
 1.005620484489096e+00  5.386053059326141e-01  -5.806990645021671e-04 
 9.838192491166017e-01  5.821208451737389e-01  -6.556750906182459e-05 
 9.407819478875166e-01  6.052776551302922e-01  3.117777070341858e-04 
 8.929421600762842e-01  6.157100799126121e-01  3.244478229100416e-04 
 8.448496128006414e-01  6.248366913416828e-01  3.666279413262699e-04 
 7.974891099240281e-01  6.371083641879369e-01  5.029143144683247e-04 
 7.505392420258175e-01  6.507826223434526e-01  4.527932484991844e-04 
 7.043822509730296e-01  6.668409415525713e-01  5.554372525733488e-04 
 6.583590276873317e-01  6.832360543902708e-01  4.967618338453197e-04 
 6.127000496815009e-01  7.006003691464597e-01  5.400415371229675e-04 
 5.671699478081540e-01  7.182903056136722e-01  5.288910689936495e-04 
 5.218884476009891e-01  7.366176482359236e-01  5.180323842571787e-04 
 4.774346063844480e-01  7.569092309406189e-01  4.557552725767407e-04 
 4.337600224826313e-01  7.789030917188345e-01  4.263194921514542e-04 
 3.894279788133522e-01  7.995973564141302e-01  3.822427202801015e-04 
 3.424510036033662e-01  8.131500211274543e-01  3.027137586107669e-04 
 2.938866418239101e-01  8.084470765724958e-01  1.003131629130805e-04 
 2.546782155052286e-01  7.795031535881648e-01  1.871607133591861e-04 
 2.337497094547626e-01  7.353748062873571e-01  3.452613849635145e-04 
 2.263539283711148e-01  6.870093825668768e-01  3.726281596771741e-04 
 2.240196142336686e-01  6.381325789101381e-01  4.635496422188300e-04 
 2.228810389488312e-01  5.892412662373778e-01  4.489518162613121e-04 
 2.205071513093236e-01  5.404318954195614e-01  5.244411747325978e-04 
 2.177454304061385e-01  4.916667630802145e-01  5.410700651724560e-04 
 2.146153058041647e-01  4.429421970398399e-01  5.453863258018182e-04 
 2.095633238926040e-01  3.943821560469472e-01  5.358432142361934e-04 
 2.020467287729554e-01  3.461283985652017e-01  4.947960854926857e-04 
 1.935046717382808e-01  2.980259583458800e-01  4.633281519629816e-04 
 1.900543514797502e-01  2.493076261835526e-01  3.880306289606093e-04 
 2.029721142504953e-01  2.023013798475511e-01  1.582651544369891e-04 
 2.382419413237831e-01  1.687542420884889e-01  6.079453252242101e-05 
 2.862412573665753e-01  1.604829059234937e-01  2.871741276452648e-04 
 3.330931293403011e-01  1.741633781380421e-01  4.371691345076663e-04 
 3.757428628596727e-01  1.979941874628481e-01  4.691487921232321e-04 
 4.174694855358670e-01  2.234015189169927e-01  5.329715980342918e-04 
 4.596417518009893e-01  2.480365326824387e-01  5.152524618727684e-04 
 5.022702369685628e-01  2.718362050914954e-01  5.451878766791593e-04 
 5.453541296056129e-01  2.947934809814496e-01  5.724136047253130e-04 
 5.886697166647676e-01  3.173054499511906e-01  5.497244736003503e-04 
 6.320380113014028e-01  3.397198549996696e-01  5.662952509536440e-04 
 6.758709518395141e-01  3.612238143653309e-01  5.260917701110976e-04 
 7.206904456086128e-01  3.806264354613058e-01  5.484778241002939e-04 
 7.658115227089687e-01  3.993789358122586e-01  4.548026343824603e-04 
 8.115022787273138e-01  4.168112270807930e-01  4.958541191475721e-04 
 8.574698711778649e-01  4.335655099576630e-01  3.663273723495820e-04 
 9.042981856301655e-01  4.478137978991411e-01  3.299798529363419e-04 
 9.505493051560121e-01  4.638775337143266e-01  3.071170556493439e-04 
 9.901903402932627e-01  4.924505659436604e-01  -9.078310003327340e-05 
 1.005620483997219e+00  5.386053069670244e-01  3.339409530119808e-01 
 9.838192461952801e-01  5.821208397418036e-01  3.334262470508425e-01 
 9.407819490484119e-01  6.052776604556298e-01  3.330493636869368e-01 
 8.929421601828147e-01  6.157100761441336e-01  3.330370169176100e-01 
 8.448496153862702e-01  6.248366885829204e-01  3.329947417154492e-01 
 7.974891174926620e-01  6.371083689871860e-01  3.328584467635493e-01 
 7.505392476624750e-01  6.507826291564786e-01  3.329084869192424e-01 
 7.043822820759300e-01  6.668410567010867e-01  3.328063495474765e-01 
 6.583590361180460e-01  6.832360587475322e-01  3.328654099682776e-01 
 6.127000555466258e-01  7.006003770771591e-01  3.328219187159060e-01 
 5.671700150834051e-01  7.182904631630637e-01  3.328323383269751e-01 
 5.218884517239831e-01  7.366176694225317e-01  3.328433019695994e-01 
 4.774346068391230e-01  7.569092276966276e-01  3.329054876309515e-01 
 4.337600185145012e-01  7.789030922586674e-01  3.329350458462693e-01 
 3.894279769693299e-01  7.995973575454361e-01  3.329790274291288e-01 
 3.424509951409450e-01  8.131500221911029e-01  3.330586754395228e-01 
 2.938866428707654e-01  8.084470734249293e-01  3.332611104191534e-01 
 2.546782137633740e-01  7.795031548169734e-01  3.331743193204113e-01 
 2.337497119346574e-01  7.353748074430594e-01  3.330161268322600e-01 
 2.263539285705357e-01  6.870093776358721e-01  3.329888114196887e-01 
 2.240196071204967e-01  6.381325834605640e-01  3.328977275845766e-01 
 2.228810000070306e-01  5.892412632303717e-01  3.329125575668709e-01 
 2.205070855708008e-01  5.404318947010914e-01  3.328378070165149e-01 
 2.177453071785410e-01  4.916667722435619e-01  3.328216237719936e-01 
 2.146152389205208e-01  4.429422259671292e-01  3.328165990618995e-01 
 2.095633197712780e-01  3.943821665151832e-01  3.328248529735328e-01 
 2.020467421508152e-01  3.461283998137958e-01  3.328654666482703e-01 
 1.935046650777935e-01  2.980259616577995e-01  3.328966988552713e-01 
 1.900543519285132e-01  2.493076302263570e-01  3.329718898132620e-01 
 2.029721168603554e-01  2.023013816798470e-01  3.332014831767211e-01 
 2.382419366857857e-01  1.687542347457574e-01  3.332988295204542e-01 
 2.862412582036521e-01  1.604829113629326e-01  3.330720874666502e-01 
 3.330931312820390e-01  1.741633750677764e-01  3.329219417113514e-01 
 3.757428607775001e-01  1.979941888072292e-01  3.328896870546002e-01 
 4.174694878662393e-01  2.234015188720529e-01  3.328257083049001e-01 
 4.596417613208548e-01  2.480365284130489e-01  3.328433240625947e-01 
 5.022702592492372e-01  2.718361803502973e-01  3.328136359396622e-01 
 5.453542059473583e-01  2.947933357223647e-01  3.327861938482365e-01 
 5.886697064903400e-01  3.173054820334527e-01  3.328093344993404e-01 
 6.320380044653078e-01  3.397198686598725e-01  3.327925825588530e-01 
 6.758709560483294e-01  3.612238176204368e-01  3.328329940550669e-01 
 7.206904437202426e-01  3.806264349037967e-01  3.328107719134820e-01 
 7.658115280037918e-01  3.993789376036888e-01  3.329048460345375e-01 
 8.115022787028111e-01  4.168112261523446e-01  3.328639454819495e-01 
 8.574698701253758e-01  4.335655075693287e-01  3.329937044774620e-01 
 9.042981791415181e-01  4.478137951765137e-01  3.330299862564300e-01 
 9.505493041278508e-01  4.638775357212138e-01  3.330529056795989e-01 
 9.901903410516423e-01  4.924505645238808e-01  3.334507848119233e-01 
 9.988820451725021e-01  5.624956542070365e-01  8.337713850168894e-01 
 9.635571403707283e-01  5.961224309702937e-01  8.331549115513626e-01 
 9.170212796442465e-01  6.112629798474973e-01  8.330370486669588e-01 
 8.688350289039872e-01  6.199661253883099e-01  8.330332287605099e-01 
 8.210745460525329e-01  6.306240970657310e-01  8.329567712389433e-01 
 7.739264110004710e-01  6.436553540440010e-01  8.329312074741611e-01 
 7.273785577428800e-01  6.585894412336407e-01  8.328897571999558e-01 
 6.813501612714798e-01  6.749799606455980e-01  8.328529578370539e-01 
 6.354840671233218e-01  6.918028066658475e-01  8.328489359911168e-01 
 5.899250916244987e-01  7.094189299530338e-01  8.328338404300473e-01 
 5.444664920388724e-01  7.272961951421733e-01  8.328425148415104e-01 
 4.995051846080966e-01  7.464110711296554e-01  8.328892226135461e-01 
 4.556148672904463e-01  7.679327929471826e-01  8.328778343325010e-01 
 4.117759201262651e-01  7.896284751706285e-01  8.329602204609490e-01 
 3.663958961728728e-01  8.079030282034295e-01  8.330056672519334e-01 
 3.179045180756526e-01  8.137581016140382e-01  8.331525815040489e-01 
 2.722253552806336e-01  7.967489427878303e-01  8.332754981888287e-01 
 2.419834974945869e-01  7.584747810604408e-01  8.330774221375330e-01 
 2.289619839754974e-01  7.113522751294215e-01  8.329973636944019e-01 
 2.249326372108006e-01  6.625791433879246e-01  8.329714756173333e-01 
 2.235347573037166e-01  6.136811776501406e-01  8.329252816995414e-01 
 2.217957830561577e-01  5.648272287756956e-01  8.328582919486636e-01 
 2.191592478695746e-01  5.160451259455405e-01  8.328344255457409e-01 
 2.162417340813771e-01  4.672994729015018e-01  8.327906894920224e-01 
 2.124762180628575e-01  4.186228814624822e-01  8.328336461473084e-01 
 2.059815100227854e-01  3.702297162429437e-01  8.327978678830045e-01 
 1.976982312062810e-01  3.220934528284033e-01  8.328831974466246e-01 
 1.904678584272718e-01  2.737732390116183e-01  8.329207149302486e-01 
 1.937669343914033e-01  2.250759181769778e-01  8.330740535677515e-01 
 2.180531283011111e-01  1.828560283978020e-01  8.332986933163744e-01 
 2.616899808155280e-01  1.612875907534454e-01  8.332015222103689e-01 
 3.102709763931522e-01  1.653339001769625e-01  8.329755154569944e-01 
 3.547586839461810e-01  1.854822215881618e-01  8.329011989874423e-01 
 3.965510894605099e-01  2.107919329472926e-01  8.328749663280137e-01 
 4.384889087422673e-01  2.358358940827751e-01  8.328276391398224e-01 
 4.809549012437764e-01  2.599419645335543e-01  8.327717345075123e-01 
 5.237248466037385e-01  2.834808036381262e-01  8.328244443270216e-01 
 5.670182868486009e-01  3.060353538368329e-01  8.327867448049010e-01 
 6.103491141375915e-01  3.285224630314910e-01  8.327870784990838e-01 
 6.538284145780967e-01  3.507245017070802e-01  8.328222646768244e-01 
 6.981893150512647e-01  3.711323836949307e-01  8.328396001048741e-01 
 7.432167156019795e-01  3.900721446529484e-01  8.328458716667229e-01 
 7.885892674790316e-01  4.082627627545291e-01  8.329323771038599e-01 
 8.343833865384461e-01  4.254581935559221e-01  8.329584310764512e-01 
 8.808156351202331e-01  4.409049416857880e-01  8.330291724372159e-01 
 9.276891717683187e-01  4.550507030578982e-01  8.330336229161722e-01 
 9.719780491505473e-01  4.758591270761285e-01  8.331680813481931e-01 
 1.002369081544315e+00  5.139933960431412e-01  8.337922236170850e-01 
 9.988820521856926e-01  5.624956483492237e-01  4.995890884143127e-01 
 9.635571477402034e-01  5.961224246095891e-01  5.002059915610840e-01 
 9.170212855829786e-01  6.112629769093585e-01  5.003242887333235e-01 
 8.688350284961208e-01  6.199661279840426e-01  5.003282106075835e-01 
 8.210745472260913e-01  6.306240845862400e-01  5.004045921727248e-01 
 7.739264143699585e-01  6.436553532296548e-01  5.004300896139959e-01 
 7.273785754285396e-01  6.585894691795551e-01  5.004716733286995e-01 
 6.813502143773831e-01  6.749800926451900e-01  5.005093651939236e-01 
 6.354840521314749e-01  6.918027655824996e-01  5.005129951710979e-01 
 5.899251331107642e-01  7.094190573720099e-01  5.005279201714370e-01 
 5.444665160292111e-01  7.272962569927948e-01  5.005187438482264e-01 
 4.995051821962887e-01  7.464110751026158e-01  5.004721555891318e-01 
 4.556148705588907e-01  7.679327952830121e-01  5.004833888292998e-01 
 4.117759163018135e-01  7.896284788842164e-01  5.004011453929895e-01 
 3.663958913402579e-01  8.079030249051233e-01  5.003555865664099e-01 
 3.179045149042209e-01  8.137581023601363e-01  5.002089005410744e-01 
 2.722253554876671e-01  7.967489434899616e-01  5.000859171596882e-01 
 2.419835005878329e-01  7.584747794224624e-01  5.002840668590111e-01 
 2.289619803871322e-01  7.113522742672146e-01  5.003639587420260e-01 
 2.249326386526879e-01  6.625791394353910e-01  5.003899945814976e-01 
 2.235347535342061e-01  6.136811836958102e-01  5.004359824671569e-01 
 2.217957429455270e-01  5.648272403707293e-01  5.005036235829595e-01 
 2.191591285595662e-01  5.160451400464946e-01  5.005281823531691e-01 
 2.162415506764271e-01  4.672994849997145e-01  5.005720808043351e-01 
 2.124762382320926e-01  4.186228691550505e-01  5.005275109458400e-01 
 2.059815142816710e-01  3.702297125756886e-01  5.005625721596142e-01 
 1.976982308353381e-01  3.220934502498209e-01  5.004769147755971e-01 
 1.904678601189017e-01  2.737732400134836e-01  5.004392892191606e-01 
 1.937669313899838e-01  2.250759164470738e-01  5.002857474746263e-01 
 2.180531310331193e-01  1.828560265768474e-01  5.000610233058974e-01 
 2.616899876088000e-01  1.612875887499401e-01  5.001579038890184e-01 
 3.102709809788876e-01  1.653338991425351e-01  5.003836720382243e-01 
 3.547586868335220e-01  1.854822278033705e-01  5.004577834275793e-01 
 3.965510950399450e-01  2.107919305457747e-01  5.004837745599472e-01 
 4.384889141001899e-01  2.358358964895750e-01  5.005309448880246e-01 
 4.809549055830912e-01  2.599419628464879e-01  5.005869402942428e-01 
 5.237249115604868e-01  2.834806933797862e-01  5.005344811733498e-01 
 5.670183060931927e-01  3.060353107478862e-01  5.005720360157089e-01 
 6.103491068570539e-01  3.285224898303913e-01  5.005719448866249e-01 
 6.538284064621617e-01  3.507245140086739e-01  5.005366106135766e-01 
 6.981893114930583e-01  3.711323862100272e-01  5.005196497584600e-01 
 7.432167108364403e-01  3.900721388942214e-01  5.005134990508971e-01 
 7.885892674107937e-01  4.082627614465167e-01  5.004274170075036e-01 
 8.343833818102384e-01  4.254581911521674e-01  5.004014708687068e-01 
 8.808156316861359e-01  4.409049396992008e-01  5.003308929671416e-01 
 9.276891672195362e-01  4.550507015085872e-01  5.003263060057196e-01 
 9.719780511229126e-01  4.758591258343507e-01  5.001919417884351e-01 
 1.002369075629525e+00  5.139933936283091e-01  4.995678638805716e-01 
 8.756372998166191e-01  5.315051034671117e-01  -8.841317378137230e-04 
 8.520436604239952e-01  5.741249637704479e-01  -1.420699291008701e-04 
 8.080196473134760e-01  5.956045741900586e-01  2.471288730486676e-04 
 7.607174510970951e-01  6.086928580549484e-01  1.980073693595346e-04 
 7.139688961117929e-01  6.237040681686675e-01  1.795538749600317e-04 
 6.677669532771404e-01  6.401714866150721e-01  3.905179230875206e-04 
 6.218177521350796e-01  6.570294194013352e-01  4.705801299246983e-04 
 5.761810355276429e-01  6.746771778868783e-01  4.641062183696060e-04 
 5.306445254512185e-01  6.925872808148377e-01  5.352335537973863e-04 
 4.856168888826369e-01  7.117206414952953e-01  3.902183920124944e-04 
 4.416940192379192e-01  7.332621519243924e-01  4.990830023639230e-04 
 3.972644769306532e-01  7.536386874118625e-01  4.456271949892488e-04 
 3.490600324820283e-01  7.610358394450855e-01  2.215948551138940e-04 
 3.032031583840502e-01  7.446021624166206e-01  1.212372581446265e-04 
 2.730387277177977e-01  7.063552796988717e-01  3.172861872364026e-04 
 2.622741881444423e-01  6.587593530474019e-01  4.697187489969394e-04 
 2.607087652943392e-01  6.099000018764733e-01  4.544350610392627e-04 
 2.589618764472822e-01  5.610086560077526e-01  4.875914952163191e-04 
 2.563180676215412e-01  5.121694203874584e-01  5.057977139330730e-04 
 2.533913662979039e-01  4.633434512909155e-01  4.569999654294404e-04 
 2.496150679485957e-01  4.144794943303657e-01  2.688231324945144e-04 
 2.430901258214006e-01  3.658608976925278e-01  2.981293716803871e-04 
 2.381413209680258e-01  3.170816579212229e-01  2.608732962147620e-04 
 2.488037368623291e-01  2.693637017344080e-01  -4.290755606838707e-06 
 2.833131922038669e-01  2.349184743106825e-01  -1.745546025682135e-04 
 3.316642414470016e-01  2.281641927124188e-01  1.352764349927436e-04 
 3.779333330768881e-01  2.441350997838480e-01  2.956747674760004e-04 
 4.204439040574407e-01  2.685565127077256e-01  3.088444348583734e-04 
 4.630954188234764e-01  2.927541234999477e-01  4.820160760466436e-04 
 5.060518323397838e-01  3.164053834739680e-01  2.952283761627058e-04 
 5.495407634373882e-01  3.390566950241730e-01  4.091431777067145e-04 
 5.930702607992304e-01  3.616485813820610e-01  3.960655560576601e-04 
 6.367557121144910e-01  3.839645652185384e-01  2.749136738628829e-04 
 6.813426584895933e-01  4.044889062491652e-01  2.508097596255698e-04 
 7.265821320559740e-01  4.235307259744217e-01  3.445102305442402e-04 
 7.721243192996643e-01  4.418143001765801e-01  2.189142311334832e-04 
 8.180627920748478e-01  4.590800759813607e-01  2.543861739440452e-04 
 8.591637403721653e-01  4.856903738902699e-01  -2.347074870024237e-04 
 8.756372940238031e-01  5.315051068794173e-01  3.342445565487126e-01 
 8.520436535949757e-01  5.741249642569619e-01  3.335027056701455e-01 
 8.080196478961156e-01  5.956045813524884e-01  3.331138402031572e-01 
 7.607174550527628e-01  6.086928636076784e-01  3.331631051224843e-01 
 7.139688947830414e-01  6.237041064448360e-01  3.331816948377931e-01 
 6.677669577601344e-01  6.401716946545969e-01  3.329702974169516e-01 
 6.218177021085010e-01  6.570293869974633e-01  3.328913796793084e-01 
 5.761810050568935e-01  6.746773336780999e-01  3.328977980337967e-01 
 5.306445039371499e-01  6.925873617677270e-01  3.328260212451422e-01 
 4.856168751370105e-01  7.117206506067169e-01  3.329711471735666e-01 
 4.416940064815783e-01  7.332621527694972e-01  3.328623692652445e-01 
 3.972644693961474e-01  7.536386917378513e-01  3.329158328158982e-01 
 3.490600312818447e-01  7.610358437061699e-01  3.331399661790836e-01 
 3.032031587988269e-01  7.446021585372162e-01  3.332402783994989e-01 
 2.730387303850649e-01  7.063552855292836e-01  3.330440922612988e-01 
 2.622741823929196e-01  6.587593560184405e-01  3.328914472333746e-01 
 2.607087569037768e-01  6.099000200870491e-01  3.329066352184389e-01 
 2.589617839115800e-01  5.610087295093419e-01  3.328725382519301e-01 
 2.563178726945535e-01  5.121695348470274e-01  3.328542770764061e-01 
 2.533910924931951e-01  4.633435986088929e-01  3.329027778908216e-01 
 2.496150587851065e-01  4.144795091911174e-01  3.330912859932404e-01 
 2.430901240267687e-01  3.658608977738639e-01  3.330621076449750e-01 
 2.381413208022157e-01  3.170816553320970e-01  3.330991613965372e-01 
 2.488037393055853e-01  2.693637036980386e-01  3.333640930846262e-01 
 2.833131896687081e-01  2.349184745275708e-01  3.335340564828282e-01 
 3.316642375243085e-01  2.281641916946796e-01  3.332238441294019e-01 
 3.779333299449626e-01  2.441351029449935e-01  3.330631098956690e-01 
 4.204439102637748e-01  2.685565134758569e-01  3.330496776446137e-01 
 4.630954370241543e-01  2.927541115663669e-01  3.328761734277230e-01 
 5.060519214171578e-01  3.164052753832760e-01  3.330634753529613e-01 
 5.495407586628120e-01  3.390566601337220e-01  3.329501905313246e-01 
 5.930702670260516e-01  3.616485922287931e-01  3.329623294488592e-01 
 6.367557132206106e-01  3.839645836299445e-01  3.330839832380311e-01 
 6.813426664429125e-01  4.044889078713811e-01  3.331082546201370e-01 
 7.265821333961912e-01  4.235307184578641e-01  3.330147323352443e-01 
 7.721243193322315e-01  4.418142972352195e-01  3.331408328787696e-01 
 8.180627952054909e-01  4.590800809997698e-01  3.331056164828869e-01 
 8.591637451512767e-01  4.856903767055602e-01  3.335949344400900e-01 
 8.681536589929839e-01  5.552699302238321e-01  8.339808427630647e-01 
 8.310404211731860e-01  5.870309713639049e-01  8.331616018649045e-01 
 7.843623687447292e-01  6.021257442310196e-01  8.330439562454890e-01 
 7.372360723940903e-01  6.158568129485830e-01  8.331495928836867e-01 
 6.908655477842803e-01  6.320084807873786e-01  8.330309529600521e-01 
 6.447284953180280e-01  6.484453196292732e-01  8.329547507006551e-01 
 5.990003948644738e-01  6.658445153016047e-01  8.328261062506483e-01 
 5.533737288983432e-01  6.835684987304403e-01  8.329214983999731e-01 
 5.080380503596247e-01  7.019193413530058e-01  8.328495595390956e-01 
 4.635191214527913e-01  7.222305348899480e-01  8.329384470834741e-01 
 4.198403052211242e-01  7.442268191025107e-01  8.328945902619868e-01 
 3.735731047691461e-01  7.598531662543688e-01  8.329986878463076e-01 
 3.249905536649894e-01  7.560235562723872e-01  8.332374626640295e-01 
 2.855181254117224e-01  7.275092956693410e-01  8.331879026987667e-01 
 2.656875272513066e-01  6.829814621649848e-01  8.329249837239495e-01 
 2.611867449400059e-01  6.343391812545739e-01  8.328249106939665e-01 
 2.600559711500914e-01  5.854499292092737e-01  8.329612691130744e-01 
 2.576672995596610e-01  5.365842045198317e-01  8.328147894803459e-01 
 2.548992433155604e-01  4.877534992258158e-01  8.328380942918757e-01 
 2.517627489134619e-01  4.389049327498925e-01  8.330372925045543e-01 
 2.466879216093038e-01  3.901241295268392e-01  8.330830425974280e-01 
 2.395564694937215e-01  3.415854180228448e-01  8.330972025720139e-01 
 2.406966788584460e-01  2.926346021424088e-01  8.332140930202057e-01 
 2.631848855275958e-01  2.492838618968718e-01  8.335165486979345e-01 
 3.070166759050768e-01  2.279548543332672e-01  8.333951622661767e-01 
 3.554949730915821e-01  2.342001514514054e-01  8.331010584096947e-01 
 3.993449591375137e-01  2.560769021666331e-01  8.330287248721454e-01 
 4.416858527372006e-01  2.808089983662105e-01  8.330765111792269e-01 
 4.844996173065075e-01  3.047057568541429e-01  8.330243663998707e-01 
 5.277816846100577e-01  3.277646328777039e-01  8.329537029656906e-01 
 5.712882981411145e-01  3.503819235840867e-01  8.330229754534918e-01 
 6.148604700080145e-01  3.728999991040865e-01  8.329878812796498e-01 
 6.589101036630898e-01  3.945224880947383e-01  8.331060224711043e-01 
 7.039563910079680e-01  4.140320610648212e-01  8.329856105913526e-01 
 7.492643191476888e-01  4.328886998409882e-01  8.331271531463625e-01 
 7.951104151135002e-01  4.503885080836280e-01  8.330439532193052e-01 
 8.400128172415257e-01  4.701307025002446e-01  8.331936057506356e-01 
 8.722249454550599e-01  5.068080993650944e-01  8.340833255814789e-01 
 8.681536559774915e-01  5.552699290878929e-01  4.993796903601389e-01 
 8.310404210651501e-01  5.870309673628915e-01  5.001991849541956e-01 
 7.843623717757636e-01  6.021257427110185e-01  5.003171398855436e-01 
 7.372360751770490e-01  6.158568169766454e-01  5.002115770129307e-01 
 6.908655391928521e-01  6.320085827139144e-01  5.003299513700161e-01 
 6.447284768440297e-01  6.484453127616679e-01  5.004067404148835e-01 
 5.990003468660928e-01  6.658445316343881e-01  5.005355185607654e-01 
 5.533736995149993e-01  6.835687141287902e-01  5.004402438479398e-01 
 5.080380348336000e-01  7.019193731469348e-01  5.005118567347796e-01 
 4.635191117581743e-01  7.222305409491349e-01  5.004229490407907e-01 
 4.198402985165013e-01  7.442268240909856e-01  5.004668761276019e-01 
 3.735730993784749e-01  7.598531658682388e-01  5.003628265086988e-01 
 3.249905523848438e-01  7.560235577600655e-01  5.001241076926078e-01 
 2.855181260326661e-01  7.275092981594710e-01  5.001735554676864e-01 
 2.656875294166810e-01  6.829814580816004e-01  5.004362738616781e-01 
 2.611867411959408e-01  6.343391908191631e-01  5.005362719229781e-01 
 2.600559559369554e-01  5.854499451883804e-01  5.003995392832506e-01 
 2.576673184793792e-01  5.365842763463962e-01  5.005450839848437e-01 
 2.548992096785801e-01  4.877535726649356e-01  5.005220017376995e-01 
 2.517627653972908e-01  4.389049800522690e-01  5.003221971790356e-01 
 2.466879314528919e-01  3.901241343435622e-01  5.002771843080197e-01 
 2.395564659984226e-01  3.415854128958792e-01  5.002629486646606e-01 
 2.406966819675218e-01  2.926345964050436e-01  5.001458298141237e-01 
 2.631848885955920e-01  2.492838591210511e-01  4.998431278728719e-01 
 3.070166803290883e-01  2.279548565888048e-01  4.999641448412986e-01 
 3.554949783762863e-01  2.342001514850902e-01  5.002578907670037e-01 
 3.993449655699168e-01  2.560769070781628e-01  5.003298847505561e-01 
 4.416858656846265e-01  2.808090042118201e-01  5.002818329773882e-01 
 4.844996285235585e-01  3.047057470020646e-01  5.003338996736857e-01 
 5.277817814335678e-01  3.277644398980347e-01  5.004063877433150e-01 
 5.712882800281585e-01  3.503819806841112e-01  5.003353389512980e-01 
 6.148604618660412e-01  3.729000193346317e-01  5.003707853390792e-01 
 6.589101054086858e-01  3.945224949193981e-01  5.002529274053029e-01 
 7.039563882872931e-01  4.140320606021526e-01  5.003736228022415e-01 
 7.492643071048212e-01  4.328886993261595e-01  5.002323207045359e-01 
 7.951104130376500e-01  4.503885037246854e-01  5.003159140025297e-01 
 8.400128153543224e-01  4.701307048318392e-01  5.001665095514711e-01 
 8.722249440092079e-01  5.068081016714401e-01  4.992770070299636e-01 
 7.610308469199347e-01  5.045673035383214e-01  -8.160403714837440e-04 
 7.547342067305595e-01  5.527768483363904e-01  -5.842846487313141e-04 
 7.165778079678480e-01  5.833220836806119e-01  2.230644928851634e-04 
 6.704753848676664e-01  6.002675467434162e-01  4.558314973654999e-05 
 6.242358989688854e-01  6.171029548456926e-01  2.246148230316455e-05 
 5.783000835605229e-01  6.347335910212509e-01  1.903921172056613e-04 
 5.325201213547204e-01  6.525511119904307e-01  1.611145973410221e-04 
 4.870432512862023e-01  6.710094353518795e-01  3.105541076739202e-04 
 4.407624285774794e-01  6.872275705382612e-01  2.016391629181250e-04 
 3.919243146086396e-01  6.910748898624870e-01  1.224903601116480e-04 
 3.458252160221683e-01  6.746917753291238e-01  4.530320889624967e-05 
 3.131513901260355e-01  6.382743397535968e-01  1.270286298085275e-04 
 2.983533295814318e-01  5.915951144736993e-01  2.549637483950875e-04 
 2.945271815740577e-01  5.427047176080276e-01  2.985472541508842e-04 
 2.917948295810329e-01  4.936941951580276e-01  1.621723929362067e-04 
 2.887342719645472e-01  4.446248875647626e-01  1.198251606669594e-04 
 2.866273926815192e-01  3.955775622450547e-01  2.152950552018477e-04 
 2.966455680898558e-01  3.476498034359288e-01  4.594936813616828e-05 
 3.284202293012667e-01  3.105441692050167e-01  -1.851664591392958e-04 
 3.759725481939973e-01  2.994114295034165e-01  3.598327364124736e-05 
 4.228764109352095e-01  3.133904668335327e-01  2.702558935219388e-04 
 4.658143143594689e-01  3.370729794885460e-01  2.921645158835034e-04 
 5.090937586354557e-01  3.601249940443796e-01  3.047139274631699e-04 
 5.526173629547277e-01  3.827553854648117e-01  3.329161066556199e-04 
 5.961974300966245e-01  4.052734865436506e-01  3.791553632500866e-04 
 6.402312039885381e-01  4.268990743047650e-01  2.486535572824020e-04 
 6.852485929342665e-01  4.463785648870264e-01  3.613957701682981e-04 
 7.296746088885655e-01  4.671768089776411e-01  1.389567624338147e-04 
 7.610308444800468e-01  5.045673017029928e-01  3.341743109917902e-01 
 7.547342181390496e-01  5.527768435524554e-01  3.339425426974693e-01 
 7.165778018414455e-01  5.833220175260585e-01  3.331350760036068e-01 
 6.704753159515655e-01  6.002671947360165e-01  3.333122970024276e-01 
 6.242358426143212e-01  6.171028747413764e-01  3.333346220884727e-01 
 5.782999692173774e-01  6.347337207312981e-01  3.331694944262555e-01 
 5.325201673498097e-01  6.525512612700219e-01  3.332008818807952e-01 
 4.870432629306253e-01  6.710094470424843e-01  3.330509282731106e-01 
 4.407624399622951e-01  6.872275678130056e-01  3.331594115642708e-01 
 3.919243230782559e-01  6.910748944344973e-01  3.332378612163739e-01 
 3.458252223164034e-01  6.746917726104409e-01  3.333144715693763e-01 
 3.131513860104688e-01  6.382743472694324e-01  3.332320982027022e-01 
 2.983533395046877e-01  5.915951039341545e-01  3.331036597094129e-01 
 2.945271607409845e-01  5.427046768460099e-01  3.330594676727126e-01 
 2.917946701631149e-01  4.936941843767177e-01  3.331936778863237e-01 
 2.887347495185463e-01  4.446247391342547e-01  3.332360103695635e-01 
 2.866274021675382e-01  3.955775396334134e-01  3.331416257425999e-01 
 2.966455611185555e-01  3.476497944132820e-01  3.333110909657951e-01 
 3.284202287105857e-01  3.105441667608729e-01  3.335422645366716e-01 
 3.759725430492041e-01  2.994114284407383e-01  3.333210796425534e-01 
 4.228764034915500e-01  3.133904618502298e-01  3.330870903913233e-01 
 4.658142929328566e-01  3.370729156154684e-01  3.330651128298482e-01 
 5.090937678802739e-01  3.601245550719817e-01  3.330504779434884e-01 
 5.526172703945778e-01  3.827554023825615e-01  3.330253395990523e-01 
 5.961973688975831e-01  4.052735066187860e-01  3.329803095810769e-01 
 6.402311889966434e-01  4.268990781800697e-01  3.331104808356560e-01 
 6.852485955590876e-01  4.463785549889912e-01  3.329974952739035e-01 
 7.296746052534723e-01  4.671768111378179e-01  3.332196087639545e-01 
 7.633892877555447e-01  5.294092949735609e-01  8.343015514220905e-01 
 7.378468577087169e-01  5.709017189135214e-01  8.334066319612021e-01 
 6.936590839567789e-01  5.921109397115722e-01  8.331689321015853e-01 
 6.473026383152930e-01  6.085290428959496e-01  8.333580825381834e-01 
 6.012298015224298e-01  6.258344965026521e-01  8.332853847536146e-01 
 5.553922512185917e-01  6.436216011190850e-01  8.331644718948640e-01 
 5.097122429722744e-01  6.616336037392968e-01  8.331030744811371e-01 
 4.642222660601775e-01  6.799971753390989e-01  8.331199311121973e-01 
 4.165292172670634e-01  6.913480018895546e-01  8.331959475441399e-01 
 3.678894904424086e-01  6.856916402968719e-01  8.332844901269791e-01 
 3.272798552614223e-01  6.584523694818143e-01  8.332937745392345e-01 
 3.037184223197471e-01  6.155599031300144e-01  8.331351929888807e-01 
 2.958134802820509e-01  5.671983135812383e-01  8.330637138703691e-01 
 2.931963772097954e-01  5.182080391612902e-01  8.331303058338035e-01 
 2.903131973364598e-01  4.691565760576654e-01  8.332587439493274e-01 
 2.870783691687345e-01  4.201249214831831e-01  8.331738447506857e-01 
 2.892739037296448e-01  3.711409156732161e-01  8.331743268650170e-01 
 3.096895382968072e-01  3.266928406206326e-01  8.334572085556570e-01 
 3.513496760879053e-01  3.012718132350944e-01  8.335027630230316e-01 
 4.001497490183001e-01  3.040726638249448e-01  8.331477542433124e-01 
 4.444160388852381e-01  3.251096628452722e-01  8.329430531776107e-01 
 4.873631545940518e-01  3.487740752835271e-01  8.330831815126932e-01 
 5.308736611754812e-01  3.714246618490264e-01  8.329487215924871e-01 
 5.743999242652376e-01  3.940169826282667e-01  8.329995746646784e-01 
 6.180851200611729e-01  4.163443937466040e-01  8.330930132576480e-01 