 C
1.000
 5.000000000000000e+01  0.000000000000000e+00  0.000000000000000e+00 
 0.000000000000000e+00  5.000000000000000e+01  0.000000000000000e+00 
 0.000000000000000e+00  0.000000000000000e+00  4.260000000000000e+00 
 96
 direct
 6.874905944645608e-01  5.122887828064949e-01  0.000000000000000e+00 
 6.779214363481603e-01  5.603961893114721e-01  0.000000000000000e+00 
 6.562272263737083e-01  6.043876953242944e-01  0.000000000000000e+00 
 6.238863890995868e-01  6.412653524095890e-01  0.000000000000000e+00 
 5.831028991402665e-01  6.685160091802032e-01  0.000000000000000e+00 
 5.366560839385712e-01  6.842825784110588e-01  0.000000000000000e+00 
 4.877112171935053e-01  6.874905944645608e-01  0.000000000000000e+00 
 4.396038106885280e-01  6.779214363481603e-01  0.000000000000000e+00 
 3.956123046757058e-01  6.562272263737083e-01  0.000000000000000e+00 
 3.587346475904110e-01  6.238863890995868e-01  0.000000000000000e+00 
 3.314839908197968e-01  5.831028991402665e-01  0.000000000000000e+00 
 3.157174215889412e-01  5.366560839385712e-01  0.000000000000000e+00 
 3.125094055354392e-01  4.877112171935053e-01  0.000000000000000e+00 
 3.220785636518398e-01  4.396038106885280e-01  0.000000000000000e+00 
 3.437727736262917e-01  3.956123046757057e-01  0.000000000000000e+00 
 3.761136109004132e-01  3.587346475904110e-01  0.000000000000000e+00 
 4.168971008597335e-01  3.314839908197968e-01  0.000000000000000e+00 
 4.633439160614289e-01  3.157174215889412e-01  0.000000000000000e+00 
 5.122887828064947e-01  3.125094055354392e-01  0.000000000000000e+00 
 5.603961893114721e-01  3.220785636518398e-01  0.000000000000000e+00 
 6.043876953242944e-01  3.437727736262917e-01  0.000000000000000e+00 
 6.412653524095890e-01  3.761136109004132e-01  0.000000000000000e+00 
 6.685160091802032e-01  4.168971008597335e-01  0.000000000000000e+00 
 6.842825784110588e-01  4.633439160614288e-01  0.000000000000000e+00 
 6.874905944645608e-01  5.122887828064949e-01  3.333333333333334e-01 
 6.779214363481603e-01  5.603961893114721e-01  3.333333333333334e-01 
 6.562272263737083e-01  6.043876953242944e-01  3.333333333333334e-01 
 6.238863890995868e-01  6.412653524095890e-01  3.333333333333334e-01 
 5.831028991402665e-01  6.685160091802032e-01  3.333333333333334e-01 
 5.366560839385712e-01  6.842825784110588e-01  3.333333333333334e-01 
 4.877112171935053e-01  6.874905944645608e-01  3.333333333333334e-01 
 4.396038106885280e-01  6.779214363481603e-01  3.333333333333334e-01 
 3.956123046757058e-01  6.562272263737083e-01  3.333333333333334e-01 
 3.587346475904110e-01  6.238863890995868e-01  3.333333333333334e-01 
 3.314839908197968e-01  5.831028991402665e-01  3.333333333333334e-01 
 3.157174215889412e-01  5.366560839385712e-01  3.333333333333334e-01 
 3.125094055354392e-01  4.877112171935053e-01  3.333333333333334e-01 
 3.220785636518398e-01  4.396038106885280e-01  3.333333333333334e-01 
 3.437727736262917e-01  3.956123046757057e-01  3.333333333333334e-01 
 3.761136109004132e-01  3.587346475904110e-01  3.333333333333334e-01 
 4.168971008597335e-01  3.314839908197968e-01  3.333333333333334e-01 
 4.633439160614289e-01  3.157174215889412e-01  3.333333333333334e-01 
 5.122887828064947e-01  3.125094055354392e-01  3.333333333333334e-01 
 5.603961893114721e-01  3.220785636518398e-01  3.333333333333334e-01 
 6.043876953242944e-01  3.437727736262917e-01  3.333333333333334e-01 
 6.412653524095890e-01  3.761136109004132e-01  3.333333333333334e-01 
 6.685160091802032e-01  4.168971008597335e-01  3.333333333333334e-01 
 6.842825784110588e-01  4.633439160614288e-01  3.333333333333334e-01 
 6.842825784110588e-01  5.366560839385712e-01  8.333333333333333e-01 
 6.685160091802032e-01  5.831028991402664e-01  8.333333333333333e-01 
 6.412653524095890e-01  6.238863890995868e-01  8.333333333333333e-01 
 6.043876953242944e-01  6.562272263737083e-01  8.333333333333333e-01 
 5.603961893114721e-01  6.779214363481603e-01  8.333333333333333e-01 
 5.122887828064949e-01  6.874905944645608e-01  8.333333333333333e-01 
 4.633439160614289e-01  6.842825784110588e-01  8.333333333333333e-01 
 4.168971008597336e-01  6.685160091802032e-01  8.333333333333333e-01 
 3.761136109004132e-01  6.412653524095890e-01  8.333333333333333e-01 
 3.437727736262918e-01  6.043876953242944e-01  8.333333333333333e-01 
 3.220785636518398e-01  5.603961893114721e-01  8.333333333333333e-01 
 3.125094055354392e-01  5.122887828064950e-01  8.333333333333333e-01 
 3.157174215889412e-01  4.633439160614289e-01  8.333333333333333e-01 
 3.314839908197968e-01  4.168971008597336e-01  8.333333333333333e-01 
 3.587346475904110e-01  3.761136109004132e-01  8.333333333333333e-01 
 3.956123046757056e-01  3.437727736262917e-01  8.333333333333333e-01 
 4.396038106885279e-01  3.220785636518398e-01  8.333333333333333e-01 
 4.877112171935052e-01  3.125094055354392e-01  8.333333333333333e-01 
 5.366560839385710e-01  3.157174215889412e-01  8.333333333333333e-01 
 5.831028991402664e-01  3.314839908197968e-01  8.333333333333333e-01 
 6.238863890995865e-01  3.587346475904108e-01  8.333333333333333e-01 
 6.562272263737082e-01  3.956123046757055e-01  8.333333333333333e-01 
 6.779214363481603e-01  4.396038106885279e-01  8.333333333333333e-01 
 6.874905944645608e-01  4.877112171935049e-01  8.333333333333333e-01 
 6.842825784110588e-01  5.366560839385712e-01  5.000000000000000e-01 
 6.685160091802032e-01  5.831028991402664e-01  5.000000000000000e-01 
 6.412653524095890e-01  6.238863890995868e-01  5.000000000000000e-01 
 6.043876953242944e-01  6.562272263737083e-01  5.000000000000000e-01 
 5.603961893114721e-01  6.779214363481603e-01  5.000000000000000e-01 
 5.122887828064949e-01  6.874905944645608e-01  5.000000000000000e-01 
 4.633439160614289e-01  6.842825784110588e-01  5.000000000000000e-01 
 4.168971008597336e-01  6.685160091802032e-01  5.000000000000000e-01 
 3.761136109004132e-01  6.412653524095890e-01  5.000000000000000e-01 
 3.437727736262918e-01  6.043876953242944e-01  5.000000000000000e-01 
 3.220785636518398e-01  5.603961893114721e-01  5.000000000000000e-01 
 3.125094055354392e-01  5.122887828064950e-01  5.000000000000000e-01 
 3.157174215889412e-01  4.633439160614289e-01  5.000000000000000e-01 
 3.314839908197968e-01  4.168971008597336e-01  5.000000000000000e-01 
 3.587346475904110e-01  3.761136109004132e-01  5.000000000000000e-01 
 3.956123046757056e-01  3.437727736262917e-01  5.000000000000000e-01 
 4.396038106885279e-01  3.220785636518398e-01  5.000000000000000e-01 
 4.877112171935052e-01  3.125094055354392e-01  5.000000000000000e-01 
 5.366560839385710e-01  3.157174215889412e-01  5.000000000000000e-01 
 5.831028991402664e-01  3.314839908197968e-01  5.000000000000000e-01 
 6.238863890995865e-01  3.587346475904108e-01  5.000000000000000e-01 
 6.562272263737082e-01  3.956123046757055e-01  5.000000000000000e-01 
 6.779214363481603e-01  4.396038106885279e-01  5.000000000000000e-01 
 6.874905944645608e-01  4.877112171935049e-01  5.000000000000000e-01 
