 C
1.000
 5.000000000000000e+01  0.000000000000000e+00  0.000000000000000e+00 
 0.000000000000000e+00  5.000000000000000e+01  0.000000000000000e+00 
 0.000000000000000e+00  0.000000000000000e+00  1.278000000000000e+01 
 240
 direct
 5.937452972322804e-01  5.061443914032474e-01  0.000000000000000e+00 
 5.781136131868542e-01  5.521938476621472e-01  0.000000000000000e+00 
 5.415514495701332e-01  5.842580045901017e-01  0.000000000000000e+00 
 4.938556085967525e-01  5.937452972322804e-01  0.000000000000000e+00 
 4.478061523378528e-01  5.781136131868542e-01  0.000000000000000e+00 
 4.157419954098985e-01  5.415514495701332e-01  0.000000000000000e+00 
 4.062547027677196e-01  4.938556085967525e-01  0.000000000000000e+00 
 4.218863868131457e-01  4.478061523378528e-01  0.000000000000000e+00 
 4.584485504298668e-01  4.157419954098985e-01  0.000000000000000e+00 
 5.061443914032474e-01  4.062547027677196e-01  0.000000000000000e+00 
 5.521938476621472e-01  4.218863868131457e-01  0.000000000000000e+00 
 5.842580045901016e-01  4.584485504298668e-01  0.000000000000000e+00 
 5.937452972322804e-01  5.061443914032474e-01  1.111111111111111e-01 
 5.781136131868542e-01  5.521938476621472e-01  1.111111111111111e-01 
 5.415514495701332e-01  5.842580045901017e-01  1.111111111111111e-01 
 4.938556085967525e-01  5.937452972322804e-01  1.111111111111111e-01 
 4.478061523378528e-01  5.781136131868542e-01  1.111111111111111e-01 
 4.157419954098985e-01  5.415514495701332e-01  1.111111111111111e-01 
 4.062547027677196e-01  4.938556085967525e-01  1.111111111111111e-01 
 4.218863868131457e-01  4.478061523378528e-01  1.111111111111111e-01 
 4.584485504298668e-01  4.157419954098985e-01  1.111111111111111e-01 
 5.061443914032474e-01  4.062547027677196e-01  1.111111111111111e-01 
 5.521938476621472e-01  4.218863868131457e-01  1.111111111111111e-01 
 5.842580045901016e-01  4.584485504298668e-01  1.111111111111111e-01 
 5.889607181740801e-01  5.301980946557360e-01  2.777777777777778e-01 
 5.619431945497934e-01  5.706326762047946e-01  2.777777777777778e-01 
 5.183280419692856e-01  5.921412892055294e-01  2.777777777777778e-01 
 4.698019053442640e-01  5.889607181740801e-01  2.777777777777778e-01 
 4.293673237952054e-01  5.619431945497934e-01  2.777777777777778e-01 
 4.078587107944706e-01  5.183280419692856e-01  2.777777777777778e-01 
 4.110392818259199e-01  4.698019053442640e-01  2.777777777777778e-01 
 4.380568054502066e-01  4.293673237952054e-01  2.777777777777778e-01 
 4.816719580307144e-01  4.078587107944706e-01  2.777777777777778e-01 
 5.301980946557360e-01  4.110392818259199e-01  2.777777777777778e-01 
 5.706326762047945e-01  4.380568054502065e-01  2.777777777777778e-01 
 5.921412892055294e-01  4.816719580307144e-01  2.777777777777778e-01 
 5.889607181740801e-01  5.301980946557360e-01  1.666666666666667e-01 
 5.619431945497934e-01  5.706326762047946e-01  1.666666666666667e-01 
 5.183280419692856e-01  5.921412892055294e-01  1.666666666666667e-01 
 4.698019053442640e-01  5.889607181740801e-01  1.666666666666667e-01 
 4.293673237952054e-01  5.619431945497934e-01  1.666666666666667e-01 
 4.078587107944706e-01  5.183280419692856e-01  1.666666666666667e-01 
 4.110392818259199e-01  4.698019053442640e-01  1.666666666666667e-01 
 4.380568054502066e-01  4.293673237952054e-01  1.666666666666667e-01 
 4.816719580307144e-01  4.078587107944706e-01  1.666666666666667e-01 
 5.301980946557360e-01  4.110392818259199e-01  1.666666666666667e-01 
 5.706326762047945e-01  4.380568054502065e-01  1.666666666666667e-01 
 5.921412892055294e-01  4.816719580307144e-01  1.666666666666667e-01 
 5.937452972322804e-01  5.061443914032474e-01  3.333333333333333e-01 
 5.781136131868542e-01  5.521938476621472e-01  3.333333333333333e-01 
 5.415514495701332e-01  5.842580045901017e-01  3.333333333333333e-01 
 4.938556085967525e-01  5.937452972322804e-01  3.333333333333333e-01 
 4.478061523378528e-01  5.781136131868542e-01  3.333333333333333e-01 
 4.157419954098985e-01  5.415514495701332e-01  3.333333333333333e-01 
 4.062547027677196e-01  4.938556085967525e-01  3.333333333333333e-01 
 4.218863868131457e-01  4.478061523378528e-01  3.333333333333333e-01 
 4.584485504298668e-01  4.157419954098985e-01  3.333333333333333e-01 
 5.061443914032474e-01  4.062547027677196e-01  3.333333333333333e-01 
 5.521938476621472e-01  4.218863868131457e-01  3.333333333333333e-01 
 5.842580045901016e-01  4.584485504298668e-01  3.333333333333333e-01 
 5.937452972322804e-01  5.061443914032474e-01  4.444444444444445e-01 
 5.781136131868542e-01  5.521938476621472e-01  4.444444444444445e-01 
 5.415514495701332e-01  5.842580045901017e-01  4.444444444444445e-01 
 4.938556085967525e-01  5.937452972322804e-01  4.444444444444445e-01 
 4.478061523378528e-01  5.781136131868542e-01  4.444444444444445e-01 
 4.157419954098985e-01  5.415514495701332e-01  4.444444444444445e-01 
 4.062547027677196e-01  4.938556085967525e-01  4.444444444444445e-01 
 4.218863868131457e-01  4.478061523378528e-01  4.444444444444445e-01 
 4.584485504298668e-01  4.157419954098985e-01  4.444444444444445e-01 
 5.061443914032474e-01  4.062547027677196e-01  4.444444444444445e-01 
 5.521938476621472e-01  4.218863868131457e-01  4.444444444444445e-01 
 5.842580045901016e-01  4.584485504298668e-01  4.444444444444445e-01 
 5.889607181740801e-01  5.301980946557360e-01  6.111111111111110e-01 
 5.619431945497934e-01  5.706326762047946e-01  6.111111111111110e-01 
 5.183280419692856e-01  5.921412892055294e-01  6.111111111111110e-01 
 4.698019053442640e-01  5.889607181740801e-01  6.111111111111110e-01 
 4.293673237952054e-01  5.619431945497934e-01  6.111111111111110e-01 
 4.078587107944706e-01  5.183280419692856e-01  6.111111111111110e-01 
 4.110392818259199e-01  4.698019053442640e-01  6.111111111111110e-01 
 4.380568054502066e-01  4.293673237952054e-01  6.111111111111110e-01 
 4.816719580307144e-01  4.078587107944706e-01  6.111111111111110e-01 
 5.301980946557360e-01  4.110392818259199e-01  6.111111111111110e-01 
 5.706326762047945e-01  4.380568054502065e-01  6.111111111111110e-01 
 5.921412892055294e-01  4.816719580307144e-01  6.111111111111110e-01 
 5.889607181740801e-01  5.301980946557360e-01  5.000000000000000e-01 
 5.619431945497934e-01  5.706326762047946e-01  5.000000000000000e-01 
 5.183280419692856e-01  5.921412892055294e-01  5.000000000000000e-01 
 4.698019053442640e-01  5.889607181740801e-01  5.000000000000000e-01 
 4.293673237952054e-01  5.619431945497934e-01  5.000000000000000e-01 
 4.078587107944706e-01  5.183280419692856e-01  5.000000000000000e-01 
 4.110392818259199e-01  4.698019053442640e-01  5.000000000000000e-01 
 4.380568054502066e-01  4.293673237952054e-01  5.000000000000000e-01 
 4.816719580307144e-01  4.078587107944706e-01  5.000000000000000e-01 
 5.301980946557360e-01  4.110392818259199e-01  5.000000000000000e-01 
 5.706326762047945e-01  4.380568054502065e-01  5.000000000000000e-01 
 5.921412892055294e-01  4.816719580307144e-01  5.000000000000000e-01 
 5.937452972322804e-01  5.061443914032474e-01  6.666666666666666e-01 
 5.781136131868542e-01  5.521938476621472e-01  6.666666666666666e-01 
 5.415514495701332e-01  5.842580045901017e-01  6.666666666666666e-01 
 4.938556085967525e-01  5.937452972322804e-01  6.666666666666666e-01 
 4.478061523378528e-01  5.781136131868542e-01  6.666666666666666e-01 
 4.157419954098985e-01  5.415514495701332e-01  6.666666666666666e-01 
 4.062547027677196e-01  4.938556085967525e-01  6.666666666666666e-01 
 4.218863868131457e-01  4.478061523378528e-01  6.666666666666666e-01 
 4.584485504298668e-01  4.157419954098985e-01  6.666666666666666e-01 
 5.061443914032474e-01  4.062547027677196e-01  6.666666666666666e-01 
 5.521938476621472e-01  4.218863868131457e-01  6.666666666666666e-01 
 5.842580045901016e-01  4.584485504298668e-01  6.666666666666666e-01 
 5.937452972322804e-01  5.061443914032474e-01  7.777777777777777e-01 
 5.781136131868542e-01  5.521938476621472e-01  7.777777777777777e-01 
 5.415514495701332e-01  5.842580045901017e-01  7.777777777777777e-01 
 4.938556085967525e-01  5.937452972322804e-01  7.777777777777777e-01 
 4.478061523378528e-01  5.781136131868542e-01  7.777777777777777e-01 
 4.157419954098985e-01  5.415514495701332e-01  7.777777777777777e-01 
 4.062547027677196e-01  4.938556085967525e-01  7.777777777777777e-01 
 4.218863868131457e-01  4.478061523378528e-01  7.777777777777777e-01 
 4.584485504298668e-01  4.157419954098985e-01  7.777777777777777e-01 
 5.061443914032474e-01  4.062547027677196e-01  7.777777777777777e-01 
 5.521938476621472e-01  4.218863868131457e-01  7.777777777777777e-01 
 5.842580045901016e-01  4.584485504298668e-01  7.777777777777777e-01 
 5.889607181740801e-01  5.301980946557360e-01  9.444444444444444e-01 
 5.619431945497934e-01  5.706326762047946e-01  9.444444444444444e-01 
 5.183280419692856e-01  5.921412892055294e-01  9.444444444444444e-01 
 4.698019053442640e-01  5.889607181740801e-01  9.444444444444444e-01 
 4.293673237952054e-01  5.619431945497934e-01  9.444444444444444e-01 
 4.078587107944706e-01  5.183280419692856e-01  9.444444444444444e-01 
 4.110392818259199e-01  4.698019053442640e-01  9.444444444444444e-01 
 4.380568054502066e-01  4.293673237952054e-01  9.444444444444444e-01 
 4.816719580307144e-01  4.078587107944706e-01  9.444444444444444e-01 
 5.301980946557360e-01  4.110392818259199e-01  9.444444444444444e-01 
 5.706326762047945e-01  4.380568054502065e-01  9.444444444444444e-01 
 5.921412892055294e-01  4.816719580307144e-01  9.444444444444444e-01 
 5.889607181740801e-01  5.301980946557360e-01  8.333333333333333e-01 
 5.619431945497934e-01  5.706326762047946e-01  8.333333333333333e-01 
 5.183280419692856e-01  5.921412892055294e-01  8.333333333333333e-01 
 4.698019053442640e-01  5.889607181740801e-01  8.333333333333333e-01 
 4.293673237952054e-01  5.619431945497934e-01  8.333333333333333e-01 
 4.078587107944706e-01  5.183280419692856e-01  8.333333333333333e-01 
 4.110392818259199e-01  4.698019053442640e-01  8.333333333333333e-01 
 4.380568054502066e-01  4.293673237952054e-01  8.333333333333333e-01 
 4.816719580307144e-01  4.078587107944706e-01  8.333333333333333e-01 
 5.301980946557360e-01  4.110392818259199e-01  8.333333333333333e-01 
 5.706326762047945e-01  4.380568054502065e-01  8.333333333333333e-01 
 5.921412892055294e-01  4.816719580307144e-01  8.333333333333333e-01 
 5.040962609354982e-01  5.624968648215203e-01  0.000000000000000e+00 
 5.470884508031963e-01  5.412954630331956e-01  0.000000000000000e+00 
 4.375031351784797e-01  5.040962609354983e-01  0.000000000000000e+00 
 4.587045369668044e-01  5.470884508031963e-01  0.000000000000000e+00 
 4.959037390645017e-01  4.375031351784797e-01  0.000000000000000e+00 
 4.529115491968037e-01  4.587045369668044e-01  0.000000000000000e+00 
 5.624968648215203e-01  4.959037390645017e-01  0.000000000000000e+00 
 5.412954630331956e-01  4.529115491968037e-01  0.000000000000000e+00 
 5.040962609354982e-01  5.624968648215203e-01  1.111111111111111e-01 
 5.470884508031963e-01  5.412954630331956e-01  1.111111111111111e-01 
 4.375031351784797e-01  5.040962609354983e-01  1.111111111111111e-01 
 4.587045369668044e-01  5.470884508031963e-01  1.111111111111111e-01 
 4.959037390645017e-01  4.375031351784797e-01  1.111111111111111e-01 
 4.529115491968037e-01  4.587045369668044e-01  1.111111111111111e-01 
 5.624968648215203e-01  4.959037390645017e-01  1.111111111111111e-01 
 5.412954630331956e-01  4.529115491968037e-01  1.111111111111111e-01 
 5.277009663800889e-01  5.561720030600678e-01  2.777777777777778e-01 
 5.593071454493868e-01  5.201320631038241e-01  2.777777777777778e-01 
 4.438279969399323e-01  5.277009663800889e-01  2.777777777777778e-01 
 4.798679368961761e-01  5.593071454493868e-01  2.777777777777778e-01 
 4.722990336199113e-01  4.438279969399323e-01  2.777777777777778e-01 
 4.406928545506132e-01  4.798679368961761e-01  2.777777777777778e-01 
 5.561720030600678e-01  4.722990336199113e-01  2.777777777777778e-01 
 5.201320631038241e-01  4.406928545506132e-01  2.777777777777778e-01 
 5.277009663800889e-01  5.561720030600678e-01  1.666666666666667e-01 
 5.593071454493868e-01  5.201320631038241e-01  1.666666666666667e-01 
 4.438279969399323e-01  5.277009663800889e-01  1.666666666666667e-01 
 4.798679368961761e-01  5.593071454493868e-01  1.666666666666667e-01 
 4.722990336199113e-01  4.438279969399323e-01  1.666666666666667e-01 
 4.406928545506132e-01  4.798679368961761e-01  1.666666666666667e-01 
 5.561720030600678e-01  4.722990336199113e-01  1.666666666666667e-01 
 5.201320631038241e-01  4.406928545506132e-01  1.666666666666667e-01 
 5.040962609354982e-01  5.624968648215203e-01  3.333333333333334e-01 
 5.470884508031963e-01  5.412954630331956e-01  3.333333333333334e-01 
 4.375031351784797e-01  5.040962609354983e-01  3.333333333333334e-01 
 4.587045369668044e-01  5.470884508031963e-01  3.333333333333334e-01 
 4.959037390645017e-01  4.375031351784797e-01  3.333333333333334e-01 
 4.529115491968037e-01  4.587045369668044e-01  3.333333333333334e-01 
 5.624968648215203e-01  4.959037390645017e-01  3.333333333333334e-01 
 5.412954630331956e-01  4.529115491968037e-01  3.333333333333334e-01 
 5.040962609354982e-01  5.624968648215203e-01  4.444444444444445e-01 
 5.470884508031963e-01  5.412954630331956e-01  4.444444444444445e-01 
 4.375031351784797e-01  5.040962609354983e-01  4.444444444444445e-01 
 4.587045369668044e-01  5.470884508031963e-01  4.444444444444445e-01 
 4.959037390645017e-01  4.375031351784797e-01  4.444444444444445e-01 
 4.529115491968037e-01  4.587045369668044e-01  4.444444444444445e-01 
 5.624968648215203e-01  4.959037390645017e-01  4.444444444444445e-01 
 5.412954630331956e-01  4.529115491968037e-01  4.444444444444445e-01 
 5.277009663800889e-01  5.561720030600678e-01  6.111111111111110e-01 
 5.593071454493868e-01  5.201320631038241e-01  6.111111111111110e-01 
 4.438279969399323e-01  5.277009663800889e-01  6.111111111111110e-01 
 4.798679368961761e-01  5.593071454493868e-01  6.111111111111110e-01 
 4.722990336199113e-01  4.438279969399323e-01  6.111111111111110e-01 
 4.406928545506132e-01  4.798679368961761e-01  6.111111111111110e-01 
 5.561720030600678e-01  4.722990336199113e-01  6.111111111111110e-01 
 5.201320631038241e-01  4.406928545506132e-01  6.111111111111110e-01 
 5.277009663800889e-01  5.561720030600678e-01  5.000000000000000e-01 
 5.593071454493868e-01  5.201320631038241e-01  5.000000000000000e-01 
 4.438279969399323e-01  5.277009663800889e-01  5.000000000000000e-01 
 4.798679368961761e-01  5.593071454493868e-01  5.000000000000000e-01 
 4.722990336199113e-01  4.438279969399323e-01  5.000000000000000e-01 
 4.406928545506132e-01  4.798679368961761e-01  5.000000000000000e-01 
 5.561720030600678e-01  4.722990336199113e-01  5.000000000000000e-01 
 5.201320631038241e-01  4.406928545506132e-01  5.000000000000000e-01 
 5.040962609354982e-01  5.624968648215203e-01  6.666666666666667e-01 
 5.470884508031963e-01  5.412954630331956e-01  6.666666666666667e-01 
 4.375031351784797e-01  5.040962609354983e-01  6.666666666666667e-01 
 4.587045369668044e-01  5.470884508031963e-01  6.666666666666667e-01 
 4.959037390645017e-01  4.375031351784797e-01  6.666666666666667e-01 
 4.529115491968037e-01  4.587045369668044e-01  6.666666666666667e-01 
 5.624968648215203e-01  4.959037390645017e-01  6.666666666666667e-01 
 5.412954630331956e-01  4.529115491968037e-01  6.666666666666667e-01 
 5.040962609354982e-01  5.624968648215203e-01  7.777777777777777e-01 
 5.470884508031963e-01  5.412954630331956e-01  7.777777777777777e-01 
 4.375031351784797e-01  5.040962609354983e-01  7.777777777777777e-01 
 4.587045369668044e-01  5.470884508031963e-01  7.777777777777777e-01 
 4.959037390645017e-01  4.375031351784797e-01  7.777777777777777e-01 
 4.529115491968037e-01  4.587045369668044e-01  7.777777777777777e-01 
 5.624968648215203e-01  4.959037390645017e-01  7.777777777777777e-01 
 5.412954630331956e-01  4.529115491968037e-01  7.777777777777777e-01 
 5.277009663800889e-01  5.561720030600678e-01  9.444444444444444e-01 
 5.593071454493868e-01  5.201320631038241e-01  9.444444444444444e-01 
 4.438279969399323e-01  5.277009663800889e-01  9.444444444444444e-01 
 4.798679368961761e-01  5.593071454493868e-01  9.444444444444444e-01 
 4.722990336199113e-01  4.438279969399323e-01  9.444444444444444e-01 
 4.406928545506132e-01  4.798679368961761e-01  9.444444444444444e-01 
 5.561720030600678e-01  4.722990336199113e-01  9.444444444444444e-01 
 5.201320631038241e-01  4.406928545506132e-01  9.444444444444444e-01 
 5.277009663800889e-01  5.561720030600678e-01  8.333333333333333e-01 
 5.593071454493868e-01  5.201320631038241e-01  8.333333333333333e-01 
 4.438279969399323e-01  5.277009663800889e-01  8.333333333333333e-01 
 4.798679368961761e-01  5.593071454493868e-01  8.333333333333333e-01 
 4.722990336199113e-01  4.438279969399323e-01  8.333333333333333e-01 
 4.406928545506132e-01  4.798679368961761e-01  8.333333333333333e-01 
 5.561720030600678e-01  4.722990336199113e-01  8.333333333333333e-01 
 5.201320631038241e-01  4.406928545506132e-01  8.333333333333333e-01 
