 Si C
1.000
 3.045461166307996e+00  5.339805056530758e-05  8.344835334391575e-05 
 3.071093378958951e-05  5.323654367516885e+00  4.116755866748462e-05 
 5.637331106415662e-06  4.832183406057927e-06  4.554585000000000e+01 
 32 32
 direct
 1.007307057889761e-01  5.753949477114308e-02  5.713013249208585e-04 
 6.035987492451279e-01  5.585562613283882e-01  5.788381924149039e-04 
 1.007288730465260e-01  7.257377486645947e-01  6.291610550932372e-02 
 6.036016794950509e-01  2.247013142836805e-01  6.290497246050304e-02 
 1.007295798463646e-01  3.921762753839836e-01  1.255446843824888e-01 
 6.035978123157406e-01  8.931930307244965e-01  1.255360825462511e-01 
 1.007267642693318e-01  7.260318470266095e-01  1.878604305487025e-01 
 6.035996795645249e-01  2.249943841282808e-01  1.878712038809613e-01 
 1.007303777217372e-01  5.753954511911582e-02  2.504934103728117e-01 
 6.035986362703206e-01  5.585566894268342e-01  2.505009033330447e-01 
 1.007285801664649e-01  7.257378449478801e-01  3.128279594459090e-01 
 6.036015055957021e-01  2.247014157776290e-01  3.128168376602878e-01 
 1.007293418900523e-01  3.921761711449637e-01  3.754579303110931e-01 
 6.035975864284691e-01  8.931929290490613e-01  3.754493280251536e-01 
 1.007265323934788e-01  7.260317417960441e-01  4.377736168135771e-01 
 6.035994476066545e-01  2.249942791540921e-01  4.377843900718836e-01 
 1.007301458643712e-01  5.753944037079241e-02  5.004065908387982e-01 
 6.035984043055135e-01  5.585565846483010e-01  5.004140838002573e-01 
 1.007283482538019e-01  7.257377402477833e-01  5.627411421216857e-01 
 6.036012736867200e-01  2.247013110766946e-01  5.627300203361593e-01 
 1.007291099835560e-01  3.921760664775690e-01  6.253711132979861e-01 
 6.035973545130846e-01  8.931928243791517e-01  6.253625110102234e-01 
 1.007263005742810e-01  7.260316370971255e-01  6.876867998364996e-01 
 6.035992156044184e-01  2.249941744829554e-01  6.876975730945479e-01 
 1.007299134655108e-01  5.753933373687260e-02  7.503197855720584e-01 
 6.035981728812229e-01  5.585564780092185e-01  7.503272785952562e-01 
 1.007281340472974e-01  7.257376319224097e-01  8.126547753273273e-01 
 6.036010242538264e-01  2.247012147514808e-01  8.126436536495857e-01 
 1.007289737038038e-01  3.921760333853740e-01  8.752863201236823e-01 
 6.035970260135927e-01  8.931926657536224e-01  8.752777221108827e-01 
 1.007265620472577e-01  7.260319964479912e-01  9.376161796366607e-01 
 6.035984836019084e-01  2.249948863673704e-01  9.376269167563529e-01 
 1.014832969206482e-01  7.259179385972270e-01  1.546472739096998e-02 
 6.028430059395283e-01  2.252466447033367e-01  1.544241434736855e-02 
 1.014432113527720e-01  3.924014800793448e-01  7.781720726963280e-02 
 6.028764317063824e-01  8.930458039752933e-01  7.784432481864428e-02 
 1.014828645164556e-01  7.254853589335571e-01  1.404041767365680e-01 
 6.028409097982769e-01  2.248128596498730e-01  1.404263078109192e-01 
 1.014479630744185e-01  5.768665953267599e-02  2.028050836201561e-01 
 6.028816760859859e-01  5.583304948034749e-01  2.027770051271342e-01 
 1.014838663035337e-01  7.259186579396292e-01  2.653831900528154e-01 
 6.028419423827218e-01  2.252476073002405e-01  2.653607978088111e-01 
 1.014427374323549e-01  3.924013898436906e-01  3.277339708001729e-01 
 6.028764362361613e-01  8.930457747974102e-01  3.277611006284197e-01 
 1.014826316604456e-01  7.254852553555202e-01  3.903174879586181e-01 
 6.028406787710583e-01  2.248127628570121e-01  3.903396194771847e-01 
 1.014477329917554e-01  5.768655293454625e-02  4.527182710900660e-01 
 6.028814423287497e-01  5.583303876709319e-01  4.526901924594045e-01 
 1.014836343361981e-01  7.259185532571926e-01  5.152963723099147e-01 
 6.028417105283657e-01  2.252475025947855e-01  5.152739800711077e-01 
 1.014425055171788e-01  3.924012851412544e-01  5.776471535471597e-01 
 6.028762043297340e-01  8.930456700962399e-01  5.776742833749271e-01 
 1.014823997956289e-01  7.254851506670982e-01  6.402306698020518e-01 
 6.028404468144597e-01  2.248126581885390e-01  6.402528013231364e-01 
 1.014475012463463e-01  5.768644788905606e-02  7.026314469810448e-01 
 6.028812102688900e-01  5.583302826045000e-01  7.026033684263597e-01 
 1.014834056101992e-01  7.259184410951995e-01  7.652094942738386e-01 
 6.028414755528535e-01  2.252473927208406e-01  7.651871015557917e-01 
 1.014423245786400e-01  3.924012509751365e-01  8.275596005268464e-01 
 6.028759216325553e-01  8.930456117210870e-01  8.275867269397618e-01 
 1.014824509420298e-01  7.254847597516649e-01  8.901369083936914e-01 
 6.028399373796591e-01  2.248124294855659e-01  8.901591126619349e-01 
 1.014481149084699e-01  5.768763251586907e-02  9.525355948651453e-01 
 6.028801546873853e-01  5.583307097077821e-01  9.525073796694413e-01 
