 C
1.000
 5.000000000000000e+01  0.000000000000000e+00  0.000000000000000e+00 
 0.000000000000000e+00  5.000000000000000e+01  0.000000000000000e+00 
 0.000000000000000e+00  0.000000000000000e+00  4.259999999999999e+00 
 32
 direct
 5.624968648215204e-01  5.040962609354984e-01  0.000000000000000e+00 
 5.412954630331958e-01  5.470884508031965e-01  0.000000000000000e+00 
 4.959037390645017e-01  5.624968648215204e-01  0.000000000000000e+00 
 4.529115491968038e-01  5.412954630331958e-01  0.000000000000000e+00 
 4.375031351784798e-01  4.959037390645017e-01  0.000000000000000e+00 
 4.587045369668045e-01  4.529115491968038e-01  0.000000000000000e+00 
 5.040962609354984e-01  4.375031351784798e-01  0.000000000000000e+00 
 5.470884508031965e-01  4.587045369668045e-01  0.000000000000000e+00 
 5.624968648215204e-01  5.040962609354984e-01  3.333333333333335e-01 
 5.412954630331958e-01  5.470884508031965e-01  3.333333333333335e-01 
 4.959037390645017e-01  5.624968648215204e-01  3.333333333333335e-01 
 4.529115491968038e-01  5.412954630331958e-01  3.333333333333335e-01 
 4.375031351784798e-01  4.959037390645017e-01  3.333333333333335e-01 
 4.587045369668045e-01  4.529115491968038e-01  3.333333333333335e-01 
 5.040962609354984e-01  4.375031351784798e-01  3.333333333333335e-01 
 5.470884508031965e-01  4.587045369668045e-01  3.333333333333335e-01 
 5.561720030600679e-01  5.277009663800890e-01  8.333333333333334e-01 
 5.201320631038242e-01  5.593071454493869e-01  8.333333333333334e-01 
 4.722990336199113e-01  5.561720030600679e-01  8.333333333333334e-01 
 4.406928545506132e-01  5.201320631038242e-01  8.333333333333334e-01 
 4.438279969399324e-01  4.722990336199114e-01  8.333333333333334e-01 
 4.798679368961761e-01  4.406928545506132e-01  8.333333333333334e-01 
 5.277009663800889e-01  4.438279969399324e-01  8.333333333333334e-01 
 5.593071454493869e-01  4.798679368961761e-01  8.333333333333334e-01 
 5.561720030600679e-01  5.277009663800890e-01  5.000000000000000e-01 
 5.201320631038242e-01  5.593071454493869e-01  5.000000000000000e-01 
 4.722990336199113e-01  5.561720030600679e-01  5.000000000000000e-01 
 4.406928545506132e-01  5.201320631038242e-01  5.000000000000000e-01 
 4.438279969399324e-01  4.722990336199114e-01  5.000000000000000e-01 
 4.798679368961761e-01  4.406928545506132e-01  5.000000000000000e-01 
 5.277009663800889e-01  4.438279969399324e-01  5.000000000000000e-01 
 5.593071454493869e-01  4.798679368961761e-01  5.000000000000000e-01 
